logs/drand/feas/drand-10-110-2.sol
# Objective value = 313
x0,1_1 0
x0,1_15 0
x0,1_21 0
x0,1_28 0
x0,1_44 0
x0,1_62 0
x0,1_74 0
x0,1_76 0
x0,1_101 0
x0,1_109 0
x0,2_1 0
x0,2_15 1
x0,2_21 0
x0,2_28 0
x0,2_44 0
x0,2_62 0
x0,2_74 0
x0,2_76 0
x0,2_101 0
x0,2_109 0
x0,3_1 0
x0,3_15 0
x0,3_21 0
x0,3_28 0
x0,3_44 0
x0,3_62 0
x0,3_74 0
x0,3_76 0
x0,3_101 0
x0,3_109 0
x0,4_1 0
x0,4_15 0
x0,4_21 0
x0,4_28 0
x0,4_44 0
x0,4_62 0
x0,4_74 0
x0,4_76 0
x0,4_101 0
x0,4_109 0
x0,5_1 0
x0,5_15 0
x0,5_21 0
x0,5_28 0
x0,5_44 0
x0,5_62 0
x0,5_74 0
x0,5_76 0
x0,5_101 0
x0,5_109 0
x0,6_1 0
x0,6_15 0
x0,6_21 0
x0,6_28 0
x0,6_44 0
x0,6_62 0
x0,6_74 0
x0,6_76 0
x0,6_101 0
x0,6_109 0
x0,7_1 0
x0,7_15 0
x0,7_21 0
x0,7_28 0
x0,7_44 0
x0,7_62 0
x0,7_74 0
x0,7_76 0
x0,7_101 0
x0,7_109 1
x1,2_1 0
x1,2_15 0
x1,2_21 0
x1,2_28 0
x1,2_44 0
x1,2_62 0
x1,2_74 0
x1,2_76 0
x1,2_101 0
x1,2_109 0
x1,3_1 0
x1,3_15 0
x1,3_21 0
x1,3_28 0
x1,3_44 0
x1,3_62 0
x1,3_74 0
x1,3_76 0
x1,3_101 0
x1,3_109 0
x1,4_1 0
x1,4_15 0
x1,4_21 0
x1,4_28 0
x1,4_44 0
x1,4_62 0
x1,4_74 0
x1,4_76 0
x1,4_101 0
x1,4_109 0
x1,5_1 0
x1,5_15 0
x1,5_21 0
x1,5_28 1
x1,5_44 0
x1,5_62 0
x1,5_74 0
x1,5_76 0
x1,5_101 0
x1,5_109 0
x1,6_1 0
x1,6_15 0
x1,6_21 0
x1,6_28 0
x1,6_44 0
x1,6_62 0
x1,6_74 0
x1,6_76 0
x1,6_101 0
x1,6_109 0
x1,7_1 0
x1,7_15 0
x1,7_21 0
x1,7_28 0
x1,7_44 0
x1,7_62 0
x1,7_74 0
x1,7_76 0
x1,7_101 1
x1,7_109 0
x2,3_1 0
x2,3_15 0
x2,3_21 0
x2,3_28 0
x2,3_44 0
x2,3_62 0
x2,3_74 0
x2,3_76 0
x2,3_101 0
x2,3_109 0
x2,4_1 0
x2,4_15 0
x2,4_21 0
x2,4_28 0
x2,4_44 0
x2,4_62 0
x2,4_74 0
x2,4_76 0
x2,4_101 0
x2,4_109 0
x2,5_1 0
x2,5_15 0
x2,5_21 1
x2,5_28 0
x2,5_44 0
x2,5_62 0
x2,5_74 0
x2,5_76 0
x2,5_101 0
x2,5_109 0
x2,6_1 0
x2,6_15 0
x2,6_21 0
x2,6_28 0
x2,6_44 0
x2,6_62 1
x2,6_74 0
x2,6_76 0
x2,6_101 0
x2,6_109 0
x2,7_1 0
x2,7_15 0
x2,7_21 0
x2,7_28 0
x2,7_44 0
x2,7_62 0
x2,7_74 0
x2,7_76 0
x2,7_101 0
x2,7_109 0
x3,4_1 0
x3,4_15 0
x3,4_21 0
x3,4_28 0
x3,4_44 0
x3,4_62 0
x3,4_74 0
x3,4_76 0
x3,4_101 0
x3,4_109 0
x3,5_1 0
x3,5_15 0
x3,5_21 0
x3,5_28 0
x3,5_44 0
x3,5_62 0
x3,5_74 0
x3,5_76 0
x3,5_101 0
x3,5_109 0
x3,6_1 0
x3,6_15 0
x3,6_21 0
x3,6_28 0
x3,6_44 1
x3,6_62 0
x3,6_74 0
x3,6_76 0
x3,6_101 0
x3,6_109 0
x3,7_1 0
x3,7_15 0
x3,7_21 0
x3,7_28 0
x3,7_44 0
x3,7_62 0
x3,7_74 0
x3,7_76 1
x3,7_101 0
x3,7_109 0
x4,5_1 1
x4,5_15 0
x4,5_21 0
x4,5_28 0
x4,5_44 0
x4,5_62 0
x4,5_74 0
x4,5_76 0
x4,5_101 0
x4,5_109 0
x4,6_1 0
x4,6_15 0
x4,6_21 0
x4,6_28 0
x4,6_44 0
x4,6_62 0
x4,6_74 0
x4,6_76 0
x4,6_101 0
x4,6_109 0
x4,7_1 0
x4,7_15 0
x4,7_21 0
x4,7_28 0
x4,7_44 0
x4,7_62 0
x4,7_74 1
x4,7_76 0
x4,7_101 0
x4,7_109 0
x5,6_1 0
x5,6_15 0
x5,6_21 0
x5,6_28 0
x5,6_44 0
x5,6_62 0
x5,6_74 0
x5,6_76 0
x5,6_101 0
x5,6_109 0
x5,7_1 0
x5,7_15 0
x5,7_21 0
x5,7_28 0
x5,7_44 0
x5,7_62 0
x5,7_74 0
x5,7_76 0
x5,7_101 0
x5,7_109 0
x6,7_1 0
x6,7_15 0
x6,7_21 0
x6,7_28 0
x6,7_44 0
x6,7_62 0
x6,7_74 0
x6,7_76 0
x6,7_101 0
x6,7_109 0
p0 0
p1 8
p2 15
p3 33
p4 35
p5 36
p6 77
p7 109
